projet_m2_wvcp/projet_m2_wvcp/original_wvcp_dzn/r14.clq.dzn
cliques=[{9,2,3,11,1,6,8,5,4,7,0,10},{115,205,179,192,90,63,28,155,1,128,50,99,14,77},{9,2,3,11,1,6,8,5,4,7,0,10},{40,92,207,143,167,3,194,101,23,157,66,53,130},{9,2,3,11,1,6,8,5,4,7,0,10},{9,2,3,11,1,6,8,5,4,7,0,10},{9,2,3,11,1,6,8,5,4,7,0,10},{9,2,3,11,1,6,8,5,4,7,0,10},{9,2,3,11,1,6,8,5,4,7,0,10},{164,9,46,137,59,212,35,176,110,72,124,202,150,96,188},{73,97,19,189,111,60,47,165,138,86,26,151,10},{125,152,166,87,98,11,36,139,48,74,190,213,112,61},{191,75,20,12,140,126,153,177,203,27,62,113,88},{178,76,127,13,49,154,204,37,114,141,89,0},{115,205,179,192,90,63,28,155,1,128,50,99,14,77},{65,52,22,91,181,39,193,129,15,142},{184,105,145,134,160,119,5,209,171,56,16},{42,197,185,161,17,106,120,135,57,172,25,82},{18,201,109,71,45,175,211,95,34,85,149,123},{73,97,19,189,111,60,47,165,138,86,26,151,10},{191,75,20,12,140,126,153,177,203,27,62,113,88},{38,100,2,180,116,206,78,21,51,64,156},{65,52,22,91,181,39,193,129,15,142},{40,92,207,143,167,3,194,101,23,157,66,53,130},{133,30,183,93,104,69,81,144,196,24,170},{42,197,185,161,17,106,120,135,57,172,25,82},{73,97,19,189,111,60,47,165,138,86,26,151,10},{191,75,20,12,140,126,153,177,203,27,62,113,88},{115,205,179,192,90,63,28,155,1,128,50,99,14,77},{29,30,33,35,28,31,36,34,32,27},{29,30,33,35,28,31,36,34,32,27},{29,30,33,35,28,31,36,34,32,27},{199,122,70,186,147,43,136,32,210,7,173,94},{148,200,44,108,33,187,174,8,163,84},{18,201,109,71,45,175,211,95,34,85,149,123},{164,9,46,137,59,212,35,176,110,72,124,202,150,96,188},{125,152,166,87,98,11,36,139,48,74,190,213,112,61},{40,38,42,44,46,47,45,39,41,43,48,37},{40,38,42,44,46,47,45,39,41,43,48,37},{40,38,42,44,46,47,45,39,41,43,48,37},{40,38,42,44,46,47,45,39,41,43,48,37},{40,38,42,44,46,47,45,39,41,43,48,37},{40,38,42,44,46,47,45,39,41,43,48,37},{40,38,42,44,46,47,45,39,41,43,48,37},{40,38,42,44,46,47,45,39,41,43,48,37},{40,38,42,44,46,47,45,39,41,43,48,37},{164,9,46,137,59,212,35,176,110,72,124,202,150,96,188},{40,38,42,44,46,47,45,39,41,43,48,37},{125,152,166,87,98,11,36,139,48,74,190,213,112,61},{59,52,58,60,50,57,54,49,51,53,56,61,55},{115,205,179,192,90,63,28,155,1,128,50,99,14,77},{59,52,58,60,50,57,54,49,51,53,56,61,55},{59,52,58,60,50,57,54,49,51,53,56,61,55},{40,92,207,143,167,3,194,101,23,157,66,53,130},{59,52,58,60,50,57,54,49,51,53,56,61,55},{59,52,58,60,50,57,54,49,51,53,56,61,55},{59,52,58,60,50,57,54,49,51,53,56,61,55},{42,197,185,161,17,106,120,135,57,172,25,82},{59,52,58,60,50,57,54,49,51,53,56,61,55},{164,9,46,137,59,212,35,176,110,72,124,202,150,96,188},{73,97,19,189,111,60,47,165,138,86,26,151,10},{125,152,166,87,98,11,36,139,48,74,190,213,112,61},{191,75,20,12,140,126,153,177,203,27,62,113,88},{115,205,179,192,90,63,28,155,1,128,50,99,14,77},{65,73,70,63,71,69,72,74,67,66,64,62,68},{65,73,70,63,71,69,72,74,67,66,64,62,68},{40,92,207,143,167,3,194,101,23,157,66,53,130},{65,73,70,63,71,69,72,74,67,66,64,62,68},{65,73,70,63,71,69,72,74,67,66,64,62,68},{65,73,70,63,71,69,72,74,67,66,64,62,68},{65,73,70,63,71,69,72,74,67,66,64,62,68},{65,73,70,63,71,69,72,74,67,66,64,62,68},{164,9,46,137,59,212,35,176,110,72,124,202,150,96,188},{73,97,19,189,111,60,47,165,138,86,26,151,10},{125,152,166,87,98,11,36,139,48,74,190,213,112,61},{191,75,20,12,140,126,153,177,203,27,62,113,88},{76,75,87,79,77,78,81,85,80,86,82,84,83},{115,205,179,192,90,63,28,155,1,128,50,99,14,77},{76,75,87,79,77,78,81,85,80,86,82,84,83},{76,75,87,79,77,78,81,85,80,86,82,84,83},{76,75,87,79,77,78,81,85,80,86,82,84,83},{76,75,87,79,77,78,81,85,80,86,82,84,83},{42,197,185,161,17,106,120,135,57,172,25,82},{76,75,87,79,77,78,81,85,80,86,82,84,83},{76,75,87,79,77,78,81,85,80,86,82,84,83},{18,201,109,71,45,175,211,95,34,85,149,123},{73,97,19,189,111,60,47,165,138,86,26,151,10},{125,152,166,87,98,11,36,139,48,74,190,213,112,61},{191,75,20,12,140,126,153,177,203,27,62,113,88},{178,76,127,13,49,154,204,37,114,141,89,0},{115,205,179,192,90,63,28,155,1,128,50,99,14,77},{97,92,90,98,93,91,95,96,89,88,94},{40,92,207,143,167,3,194,101,23,157,66,53,130},{133,30,183,93,104,69,81,144,196,24,170},{199,122,70,186,147,43,136,32,210,7,173,94},{18,201,109,71,45,175,211,95,34,85,149,123},{164,9,46,137,59,212,35,176,110,72,124,202,150,96,188},{73,97,19,189,111,60,47,165,138,86,26,151,10},{125,152,166,87,98,11,36,139,48,74,190,213,112,61},{115,205,179,192,90,63,28,155,1,128,50,99,14,77},{100,105,111,103,108,109,106,104,99,110,101,107,112,102},{100,105,111,103,108,109,106,104,99,110,101,107,112,102},{100,105,111,103,108,109,106,104,99,110,101,107,112,102},{100,105,111,103,108,109,106,104,99,110,101,107,112,102},{100,105,111,103,108,109,106,104,99,110,101,107,112,102},{100,105,111,103,108,109,106,104,99,110,101,107,112,102},{100,105,111,103,108,109,106,104,99,110,101,107,112,102},{100,105,111,103,108,109,106,104,99,110,101,107,112,102},{100,105,111,103,108,109,106,104,99,110,101,107,112,102},{100,105,111,103,108,109,106,104,99,110,101,107,112,102},{164,9,46,137,59,212,35,176,110,72,124,202,150,96,188},{100,105,111,103,108,109,106,104,99,110,101,107,112,102},{100,105,111,103,108,109,106,104,99,110,101,107,112,102},{125,115,121,122,120,116,119,124,118,113,114,123,117},{125,115,121,122,120,116,119,124,118,113,114,123,117},{115,205,179,192,90,63,28,155,1,128,50,99,14,77},{125,115,121,122,120,116,119,124,118,113,114,123,117},{125,115,121,122,120,116,119,124,118,113,114,123,117},{125,115,121,122,120,116,119,124,118,113,114,123,117},{125,115,121,122,120,116,119,124,118,113,114,123,117},{42,197,185,161,17,106,120,135,57,172,25,82},{125,115,121,122,120,116,119,124,118,113,114,123,117},{125,115,121,122,120,116,119,124,118,113,114,123,117},{125,115,121,122,120,116,119,124,118,113,114,123,117},{164,9,46,137,59,212,35,176,110,72,124,202,150,96,188},{125,152,166,87,98,11,36,139,48,74,190,213,112,61},{133,127,137,134,126,128,135,138,139,129,136,130,131,132},{133,127,137,134,126,128,135,138,139,129,136,130,131,132},{115,205,179,192,90,63,28,155,1,128,50,99,14,77},{133,127,137,134,126,128,135,138,139,129,136,130,131,132},{133,127,137,134,126,128,135,138,139,129,136,130,131,132},{133,127,137,134,126,128,135,138,139,129,136,130,131,132},{133,127,137,134,126,128,135,138,139,129,136,130,131,132},{133,127,137,134,126,128,135,138,139,129,136,130,131,132},{133,127,137,134,126,128,135,138,139,129,136,130,131,132},{133,127,137,134,126,128,135,138,139,129,136,130,131,132},{133,127,137,134,126,128,135,138,139,129,136,130,131,132},{164,9,46,137,59,212,35,176,110,72,124,202,150,96,188},{133,127,137,134,126,128,135,138,139,129,136,130,131,132},{125,152,166,87,98,11,36,139,48,74,190,213,112,61},{191,75,20,12,140,126,153,177,203,27,62,113,88},{148,152,145,143,140,147,144,150,146,149,141,142,151},{148,152,145,143,140,147,144,150,146,149,141,142,151},{40,92,207,143,167,3,194,101,23,157,66,53,130},{148,152,145,143,140,147,144,150,146,149,141,142,151},{148,152,145,143,140,147,144,150,146,149,141,142,151},{148,152,145,143,140,147,144,150,146,149,141,142,151},{148,152,145,143,140,147,144,150,146,149,141,142,151},{148,152,145,143,140,147,144,150,146,149,141,142,151},{148,152,145,143,140,147,144,150,146,149,141,142,151},{164,9,46,137,59,212,35,176,110,72,124,202,150,96,188},{73,97,19,189,111,60,47,165,138,86,26,151,10},{125,152,166,87,98,11,36,139,48,74,190,213,112,61},{164,166,158,162,161,165,155,159,160,153,154,163,157,156},{164,166,158,162,161,165,155,159,160,153,154,163,157,156},{115,205,179,192,90,63,28,155,1,128,50,99,14,77},{164,166,158,162,161,165,155,159,160,153,154,163,157,156},{164,166,158,162,161,165,155,159,160,153,154,163,157,156},{164,166,158,162,161,165,155,159,160,153,154,163,157,156},{164,166,158,162,161,165,155,159,160,153,154,163,157,156},{164,166,158,162,161,165,155,159,160,153,154,163,157,156},{164,166,158,162,161,165,155,159,160,153,154,163,157,156},{164,166,158,162,161,165,155,159,160,153,154,163,157,156},{164,166,158,162,161,165,155,159,160,153,154,163,157,156},{164,9,46,137,59,212,35,176,110,72,124,202,150,96,188},{164,166,158,162,161,165,155,159,160,153,154,163,157,156},{164,166,158,162,161,165,155,159,160,153,154,163,157,156},{40,92,207,143,167,3,194,101,23,157,66,53,130},{158,79,208,54,41,67,4,168,102,117,131},{195,29,103,182,159,118,80,169,55,68,132},{133,30,183,93,104,69,81,144,196,24,170},{184,105,145,134,160,119,5,209,171,56,16},{42,197,185,161,17,106,120,135,57,172,25,82},{199,122,70,186,147,43,136,32,210,7,173,94},{148,200,44,108,33,187,174,8,163,84},{18,201,109,71,45,175,211,95,34,85,149,123},{164,9,46,137,59,212,35,176,110,72,124,202,150,96,188},{178,184,185,179,189,183,186,182,187,180,181,177,190,188},{178,184,185,179,189,183,186,182,187,180,181,177,190,188},{115,205,179,192,90,63,28,155,1,128,50,99,14,77},{178,184,185,179,189,183,186,182,187,180,181,177,190,188},{178,184,185,179,189,183,186,182,187,180,181,177,190,188},{178,184,185,179,189,183,186,182,187,180,181,177,190,188},{178,184,185,179,189,183,186,182,187,180,181,177,190,188},{178,184,185,179,189,183,186,182,187,180,181,177,190,188},{178,184,185,179,189,183,186,182,187,180,181,177,190,188},{178,184,185,179,189,183,186,182,187,180,181,177,190,188},{178,184,185,179,189,183,186,182,187,180,181,177,190,188},{164,9,46,137,59,212,35,176,110,72,124,202,150,96,188},{178,184,185,179,189,183,186,182,187,180,181,177,190,188},{178,184,185,179,189,183,186,182,187,180,181,177,190,188},{191,199,200,197,201,195,192,194,202,193,198,196},{115,205,179,192,90,63,28,155,1,128,50,99,14,77},{191,199,200,197,201,195,192,194,202,193,198,196},{191,199,200,197,201,195,192,194,202,193,198,196},{191,199,200,197,201,195,192,194,202,193,198,196},{191,199,200,197,201,195,192,194,202,193,198,196},{191,199,200,197,201,195,192,194,202,193,198,196},{191,199,200,197,201,195,192,194,202,193,198,196},{191,199,200,197,201,195,192,194,202,193,198,196},{191,199,200,197,201,195,192,194,202,193,198,196},{191,199,200,201,197,195,192,194,202,193,198,196},{164,9,46,137,59,212,35,176,110,72,124,202,150,96,188},{191,75,20,12,140,126,153,177,203,27,62,113,88},{178,76,127,13,49,154,204,37,114,141,89,0},{115,205,179,192,90,63,28,155,1,128,50,99,14,77},{38,100,2,180,116,206,78,21,51,64,156},{40,92,207,143,167,3,194,101,23,157,66,53,130},{205,207,212,208,206,211,209,204,213,203,210},{184,105,145,134,160,119,5,209,171,56,16},{199,122,70,186,147,43,136,32,210,7,173,94},{18,201,109,71,45,175,211,95,34,85,149,123},{164,9,46,137,59,212,35,176,110,72,124,202,150,96,188},{125,152,166,87,98,11,36,139,48,74,190,213,112,61}];
nr_cliques=214;
