projet_m2_wvcp/projet_m2_wvcp/original_wvcp_dzn/r14.dzn
name="r14";
nr_vertices=214;
nr_edges=2387;
neighborhoods=[{1,2,3,4,5,6,7,8,9,10,11,13,37,49,76,89,114,127,141,154,178,204},{0,2,3,4,5,6,7,8,9,10,11,14,28,50,63,77,90,99,115,128,155,179,192,205},{0,1,3,4,5,6,7,8,9,10,11,21,38,51,64,78,100,116,156,180,206},{0,1,2,4,5,6,7,8,9,10,11,23,40,53,66,92,101,130,143,157,167,194,207},{0,1,2,3,5,6,7,8,9,10,11,41,54,67,79,102,117,131,158,168,208},{0,1,2,3,4,6,7,8,9,10,11,16,56,105,119,134,145,160,171,184,209},{0,1,2,3,4,5,7,8,9,10,11,31,58,83,107,121,146,162,198},{0,1,2,3,4,5,6,8,9,10,11,32,43,70,94,122,136,147,173,186,199,210},{0,1,2,3,4,5,6,7,9,10,11,33,44,84,108,148,163,174,187,200},{0,1,2,3,4,5,6,7,8,10,11,35,46,59,72,96,110,124,137,150,164,176,188,202,212},{0,1,2,3,4,5,6,7,8,9,11,19,26,47,60,73,86,97,111,138,151,165,189},{0,1,2,3,4,5,6,7,8,9,10,36,48,61,74,87,98,112,125,139,152,166,190,213},{13,14,15,16,17,18,19,20,27,62,75,88,113,126,140,153,177,191,203},{0,12,14,15,16,17,18,19,37,49,76,89,114,127,141,154,178,204},{1,12,13,15,16,17,18,19,28,50,63,77,90,99,115,128,155,179,192,205},{12,13,14,16,17,18,19,22,39,52,65,91,129,142,181,193},{5,12,13,14,15,17,18,19,56,105,119,134,145,160,171,184,209},{12,13,14,15,16,18,19,25,42,57,82,106,120,135,161,172,185,197},{12,13,14,15,16,17,19,34,45,71,85,95,109,123,149,175,201,211},{10,12,13,14,15,16,17,18,26,47,60,73,86,97,111,138,151,165,189},{12,21,22,23,24,25,26,27,62,75,88,113,126,140,153,177,191,203},{2,20,22,23,24,25,26,38,51,64,78,100,116,156,180,206},{15,20,21,23,24,25,26,39,52,65,91,129,142,181,193},{3,20,21,22,24,25,26,40,53,66,92,101,130,143,157,167,194,207},{20,21,22,23,25,26,30,69,81,93,104,133,144,170,183,196},{17,20,21,22,23,24,26,42,57,82,106,120,135,161,172,185,197},{10,19,20,21,22,23,24,25,47,60,73,86,97,111,138,151,165,189},{12,20,28,29,30,31,32,33,34,35,36,62,75,88,113,126,140,153,177,191,203},{1,14,27,29,30,31,32,33,34,35,36,50,63,77,90,99,115,128,155,179,192,205},{27,28,30,31,32,33,34,35,36,55,68,80,103,118,132,159,169,182,195},{24,27,28,29,31,32,33,34,35,36,69,81,93,104,133,144,170,183,196},{6,27,28,29,30,32,33,34,35,36,58,83,107,121,146,162,198},{7,27,28,29,30,31,33,34,35,36,43,70,94,122,136,147,173,186,199,210},{8,27,28,29,30,31,32,34,35,36,44,84,108,148,163,174,187,200},{18,27,28,29,30,31,32,33,35,36,45,71,85,95,109,123,149,175,201,211},{9,27,28,29,30,31,32,33,34,36,46,59,72,96,110,124,137,150,164,176,188,202,212},{11,27,28,29,30,31,32,33,34,35,48,61,74,87,98,112,125,139,152,166,190,213},{0,13,38,39,40,41,42,43,44,45,46,47,48,49,76,89,114,127,141,154,178,204},{2,21,37,39,40,41,42,43,44,45,46,47,48,51,64,78,100,116,156,180,206},{15,22,37,38,40,41,42,43,44,45,46,47,48,52,65,91,129,142,181,193},{3,23,37,38,39,41,42,43,44,45,46,47,48,53,66,92,101,130,143,157,167,194,207},{4,37,38,39,40,42,43,44,45,46,47,48,54,67,79,102,117,131,158,168,208},{17,25,37,38,39,40,41,43,44,45,46,47,48,57,82,106,120,135,161,172,185,197},{7,32,37,38,39,40,41,42,44,45,46,47,48,70,94,122,136,147,173,186,199,210},{8,33,37,38,39,40,41,42,43,45,46,47,48,84,108,148,163,174,187,200},{18,34,37,38,39,40,41,42,43,44,46,47,48,71,85,95,109,123,149,175,201,211},{9,35,37,38,39,40,41,42,43,44,45,47,48,59,72,96,110,124,137,150,164,176,188,202,212},{10,19,26,37,38,39,40,41,42,43,44,45,46,48,60,73,86,97,111,138,151,165,189},{11,36,37,38,39,40,41,42,43,44,45,46,47,61,74,87,98,112,125,139,152,166,190,213},{0,13,37,50,51,52,53,54,55,56,57,58,59,60,61,76,89,114,127,141,154,178,204},{1,14,28,49,51,52,53,54,55,56,57,58,59,60,61,63,77,90,99,115,128,155,179,192,205},{2,21,38,49,50,52,53,54,55,56,57,58,59,60,61,64,78,100,116,156,180,206},{15,22,39,49,50,51,53,54,55,56,57,58,59,60,61,65,91,129,142,181,193},{3,23,40,49,50,51,52,54,55,56,57,58,59,60,61,66,92,101,130,143,157,167,194,207},{4,41,49,50,51,52,53,55,56,57,58,59,60,61,67,79,102,117,131,158,168,208},{29,49,50,51,52,53,54,56,57,58,59,60,61,68,80,103,118,132,159,169,182,195},{5,16,49,50,51,52,53,54,55,57,58,59,60,61,105,119,134,145,160,171,184,209},{17,25,42,49,50,51,52,53,54,55,56,58,59,60,61,82,106,120,135,161,172,185,197},{6,31,49,50,51,52,53,54,55,56,57,59,60,61,83,107,121,146,162,198},{9,35,46,49,50,51,52,53,54,55,56,57,58,60,61,72,96,110,124,137,150,164,176,188,202,212},{10,19,26,47,49,50,51,52,53,54,55,56,57,58,59,61,73,86,97,111,138,151,165,189},{11,36,48,49,50,51,52,53,54,55,56,57,58,59,60,74,87,98,112,125,139,152,166,190,213},{12,20,27,63,64,65,66,67,68,69,70,71,72,73,74,75,88,113,126,140,153,177,191,203},{1,14,28,50,62,64,65,66,67,68,69,70,71,72,73,74,77,90,99,115,128,155,179,192,205},{2,21,38,51,62,63,65,66,67,68,69,70,71,72,73,74,78,100,116,156,180,206},{15,22,39,52,62,63,64,66,67,68,69,70,71,72,73,74,91,129,142,181,193},{3,23,40,53,62,63,64,65,67,68,69,70,71,72,73,74,92,101,130,143,157,167,194,207},{4,41,54,62,63,64,65,66,68,69,70,71,72,73,74,79,102,117,131,158,168,208},{29,55,62,63,64,65,66,67,69,70,71,72,73,74,80,103,118,132,159,169,182,195},{24,30,62,63,64,65,66,67,68,70,71,72,73,74,81,93,104,133,144,170,183,196},{7,32,43,62,63,64,65,66,67,68,69,71,72,73,74,94,122,136,147,173,186,199,210},{18,34,45,62,63,64,65,66,67,68,69,70,72,73,74,85,95,109,123,149,175,201,211},{9,35,46,59,62,63,64,65,66,67,68,69,70,71,73,74,96,110,124,137,150,164,176,188,202,212},{10,19,26,47,60,62,63,64,65,66,67,68,69,70,71,72,74,86,97,111,138,151,165,189},{11,36,48,61,62,63,64,65,66,67,68,69,70,71,72,73,87,98,112,125,139,152,166,190,213},{12,20,27,62,76,77,78,79,80,81,82,83,84,85,86,87,88,113,126,140,153,177,191,203},{0,13,37,49,75,77,78,79,80,81,82,83,84,85,86,87,89,114,127,141,154,178,204},{1,14,28,50,63,75,76,78,79,80,81,82,83,84,85,86,87,90,99,115,128,155,179,192,205},{2,21,38,51,64,75,76,77,79,80,81,82,83,84,85,86,87,100,116,156,180,206},{4,41,54,67,75,76,77,78,80,81,82,83,84,85,86,87,102,117,131,158,168,208},{29,55,68,75,76,77,78,79,81,82,83,84,85,86,87,103,118,132,159,169,182,195},{24,30,69,75,76,77,78,79,80,82,83,84,85,86,87,93,104,133,144,170,183,196},{17,25,42,57,75,76,77,78,79,80,81,83,84,85,86,87,106,120,135,161,172,185,197},{6,31,58,75,76,77,78,79,80,81,82,84,85,86,87,107,121,146,162,198},{8,33,44,75,76,77,78,79,80,81,82,83,85,86,87,108,148,163,174,187,200},{18,34,45,71,75,76,77,78,79,80,81,82,83,84,86,87,95,109,123,149,175,201,211},{10,19,26,47,60,73,75,76,77,78,79,80,81,82,83,84,85,87,97,111,138,151,165,189},{11,36,48,61,74,75,76,77,78,79,80,81,82,83,84,85,86,98,112,125,139,152,166,190,213},{12,20,27,62,75,89,90,91,92,93,94,95,96,97,98,113,126,140,153,177,191,203},{0,13,37,49,76,88,90,91,92,93,94,95,96,97,98,114,127,141,154,178,204},{1,14,28,50,63,77,88,89,91,92,93,94,95,96,97,98,99,115,128,155,179,192,205},{15,22,39,52,65,88,89,90,92,93,94,95,96,97,98,129,142,181,193},{3,23,40,53,66,88,89,90,91,93,94,95,96,97,98,101,130,143,157,167,194,207},{24,30,69,81,88,89,90,91,92,94,95,96,97,98,104,133,144,170,183,196},{7,32,43,70,88,89,90,91,92,93,95,96,97,98,122,136,147,173,186,199,210},{18,34,45,71,85,88,89,90,91,92,93,94,96,97,98,109,123,149,175,201,211},{9,35,46,59,72,88,89,90,91,92,93,94,95,97,98,110,124,137,150,164,176,188,202,212},{10,19,26,47,60,73,86,88,89,90,91,92,93,94,95,96,98,111,138,151,165,189},{11,36,48,61,74,87,88,89,90,91,92,93,94,95,96,97,112,125,139,152,166,190,213},{1,14,28,50,63,77,90,100,101,102,103,104,105,106,107,108,109,110,111,112,115,128,155,179,192,205},{2,21,38,51,64,78,99,101,102,103,104,105,106,107,108,109,110,111,112,116,156,180,206},{3,23,40,53,66,92,99,100,102,103,104,105,106,107,108,109,110,111,112,130,143,157,167,194,207},{4,41,54,67,79,99,100,101,103,104,105,106,107,108,109,110,111,112,117,131,158,168,208},{29,55,68,80,99,100,101,102,104,105,106,107,108,109,110,111,112,118,132,159,169,182,195},{24,30,69,81,93,99,100,101,102,103,105,106,107,108,109,110,111,112,133,144,170,183,196},{5,16,56,99,100,101,102,103,104,106,107,108,109,110,111,112,119,134,145,160,171,184,209},{17,25,42,57,82,99,100,101,102,103,104,105,107,108,109,110,111,112,120,135,161,172,185,197},{6,31,58,83,99,100,101,102,103,104,105,106,108,109,110,111,112,121,146,162,198},{8,33,44,84,99,100,101,102,103,104,105,106,107,109,110,111,112,148,163,174,187,200},{18,34,45,71,85,95,99,100,101,102,103,104,105,106,107,108,110,111,112,123,149,175,201,211},{9,35,46,59,72,96,99,100,101,102,103,104,105,106,107,108,109,111,112,124,137,150,164,176,188,202,212},{10,19,26,47,60,73,86,97,99,100,101,102,103,104,105,106,107,108,109,110,112,138,151,165,189},{11,36,48,61,74,87,98,99,100,101,102,103,104,105,106,107,108,109,110,111,125,139,152,166,190,213},{12,20,27,62,75,88,114,115,116,117,118,119,120,121,122,123,124,125,126,140,153,177,191,203},{0,13,37,49,76,89,113,115,116,117,118,119,120,121,122,123,124,125,127,141,154,178,204},{1,14,28,50,63,77,90,99,113,114,116,117,118,119,120,121,122,123,124,125,128,155,179,192,205},{2,21,38,51,64,78,100,113,114,115,117,118,119,120,121,122,123,124,125,156,180,206},{4,41,54,67,79,102,113,114,115,116,118,119,120,121,122,123,124,125,131,158,168,208},{29,55,68,80,103,113,114,115,116,117,119,120,121,122,123,124,125,132,159,169,182,195},{5,16,56,105,113,114,115,116,117,118,120,121,122,123,124,125,134,145,160,171,184,209},{17,25,42,57,82,106,113,114,115,116,117,118,119,121,122,123,124,125,135,161,172,185,197},{6,31,58,83,107,113,114,115,116,117,118,119,120,122,123,124,125,146,162,198},{7,32,43,70,94,113,114,115,116,117,118,119,120,121,123,124,125,136,147,173,186,199,210},{18,34,45,71,85,95,109,113,114,115,116,117,118,119,120,121,122,124,125,149,175,201,211},{9,35,46,59,72,96,110,113,114,115,116,117,118,119,120,121,122,123,125,137,150,164,176,188,202,212},{11,36,48,61,74,87,98,112,113,114,115,116,117,118,119,120,121,122,123,124,139,152,166,190,213},{12,20,27,62,75,88,113,127,128,129,130,131,132,133,134,135,136,137,138,139,140,153,177,191,203},{0,13,37,49,76,89,114,126,128,129,130,131,132,133,134,135,136,137,138,139,141,154,178,204},{1,14,28,50,63,77,90,99,115,126,127,129,130,131,132,133,134,135,136,137,138,139,155,179,192,205},{15,22,39,52,65,91,126,127,128,130,131,132,133,134,135,136,137,138,139,142,181,193},{3,23,40,53,66,92,101,126,127,128,129,131,132,133,134,135,136,137,138,139,143,157,167,194,207},{4,41,54,67,79,102,117,126,127,128,129,130,132,133,134,135,136,137,138,139,158,168,208},{29,55,68,80,103,118,126,127,128,129,130,131,133,134,135,136,137,138,139,159,169,182,195},{24,30,69,81,93,104,126,127,128,129,130,131,132,134,135,136,137,138,139,144,170,183,196},{5,16,56,105,119,126,127,128,129,130,131,132,133,135,136,137,138,139,145,160,171,184,209},{17,25,42,57,82,106,120,126,127,128,129,130,131,132,133,134,136,137,138,139,161,172,185,197},{7,32,43,70,94,122,126,127,128,129,130,131,132,133,134,135,137,138,139,147,173,186,199,210},{9,35,46,59,72,96,110,124,126,127,128,129,130,131,132,133,134,135,136,138,139,150,164,176,188,202,212},{10,19,26,47,60,73,86,97,111,126,127,128,129,130,131,132,133,134,135,136,137,139,151,165,189},{11,36,48,61,74,87,98,112,125,126,127,128,129,130,131,132,133,134,135,136,137,138,152,166,190,213},{12,20,27,62,75,88,113,126,141,142,143,144,145,146,147,148,149,150,151,152,153,177,191,203},{0,13,37,49,76,89,114,127,140,142,143,144,145,146,147,148,149,150,151,152,154,178,204},{15,22,39,52,65,91,129,140,141,143,144,145,146,147,148,149,150,151,152,181,193},{3,23,40,53,66,92,101,130,140,141,142,144,145,146,147,148,149,150,151,152,157,167,194,207},{24,30,69,81,93,104,133,140,141,142,143,145,146,147,148,149,150,151,152,170,183,196},{5,16,56,105,119,134,140,141,142,143,144,146,147,148,149,150,151,152,160,171,184,209},{6,31,58,83,107,121,140,141,142,143,144,145,147,148,149,150,151,152,162,198},{7,32,43,70,94,122,136,140,141,142,143,144,145,146,148,149,150,151,152,173,186,199,210},{8,33,44,84,108,140,141,142,143,144,145,146,147,149,150,151,152,163,174,187,200},{18,34,45,71,85,95,109,123,140,141,142,143,144,145,146,147,148,150,151,152,175,201,211},{9,35,46,59,72,96,110,124,137,140,141,142,143,144,145,146,147,148,149,151,152,164,176,188,202,212},{10,19,26,47,60,73,86,97,111,138,140,141,142,143,144,145,146,147,148,149,150,152,165,189},{11,36,48,61,74,87,98,112,125,139,140,141,142,143,144,145,146,147,148,149,150,151,166,190,213},{12,20,27,62,75,88,113,126,140,154,155,156,157,158,159,160,161,162,163,164,165,166,177,191,203},{0,13,37,49,76,89,114,127,141,153,155,156,157,158,159,160,161,162,163,164,165,166,178,204},{1,14,28,50,63,77,90,99,115,128,153,154,156,157,158,159,160,161,162,163,164,165,166,179,192,205},{2,21,38,51,64,78,100,116,153,154,155,157,158,159,160,161,162,163,164,165,166,180,206},{3,23,40,53,66,92,101,130,143,153,154,155,156,158,159,160,161,162,163,164,165,166,167,194,207},{4,41,54,67,79,102,117,131,153,154,155,156,157,159,160,161,162,163,164,165,166,168,208},{29,55,68,80,103,118,132,153,154,155,156,157,158,160,161,162,163,164,165,166,169,182,195},{5,16,56,105,119,134,145,153,154,155,156,157,158,159,161,162,163,164,165,166,171,184,209},{17,25,42,57,82,106,120,135,153,154,155,156,157,158,159,160,162,163,164,165,166,172,185,197},{6,31,58,83,107,121,146,153,154,155,156,157,158,159,160,161,163,164,165,166,198},{8,33,44,84,108,148,153,154,155,156,157,158,159,160,161,162,164,165,166,174,187,200},{9,35,46,59,72,96,110,124,137,150,153,154,155,156,157,158,159,160,161,162,163,165,166,176,188,202,212},{10,19,26,47,60,73,86,97,111,138,151,153,154,155,156,157,158,159,160,161,162,163,164,166,189},{11,36,48,61,74,87,98,112,125,139,152,153,154,155,156,157,158,159,160,161,162,163,164,165,190,213},{3,23,40,53,66,92,101,130,143,157,168,169,170,171,172,173,174,175,176,194,207},{4,41,54,67,79,102,117,131,158,167,169,170,171,172,173,174,175,176,208},{29,55,68,80,103,118,132,159,167,168,170,171,172,173,174,175,176,182,195},{24,30,69,81,93,104,133,144,167,168,169,171,172,173,174,175,176,183,196},{5,16,56,105,119,134,145,160,167,168,169,170,172,173,174,175,176,184,209},{17,25,42,57,82,106,120,135,161,167,168,169,170,171,173,174,175,176,185,197},{7,32,43,70,94,122,136,147,167,168,169,170,171,172,174,175,176,186,199,210},{8,33,44,84,108,148,163,167,168,169,170,171,172,173,175,176,187,200},{18,34,45,71,85,95,109,123,149,167,168,169,170,171,172,173,174,176,201,211},{9,35,46,59,72,96,110,124,137,150,164,167,168,169,170,171,172,173,174,175,188,202,212},{12,20,27,62,75,88,113,126,140,153,178,179,180,181,182,183,184,185,186,187,188,189,190,191,203},{0,13,37,49,76,89,114,127,141,154,177,179,180,181,182,183,184,185,186,187,188,189,190,204},{1,14,28,50,63,77,90,99,115,128,155,177,178,180,181,182,183,184,185,186,187,188,189,190,192,205},{2,21,38,51,64,78,100,116,156,177,178,179,181,182,183,184,185,186,187,188,189,190,206},{15,22,39,52,65,91,129,142,177,178,179,180,182,183,184,185,186,187,188,189,190,193},{29,55,68,80,103,118,132,159,169,177,178,179,180,181,183,184,185,186,187,188,189,190,195},{24,30,69,81,93,104,133,144,170,177,178,179,180,181,182,184,185,186,187,188,189,190,196},{5,16,56,105,119,134,145,160,171,177,178,179,180,181,182,183,185,186,187,188,189,190,209},{17,25,42,57,82,106,120,135,161,172,177,178,179,180,181,182,183,184,186,187,188,189,190,197},{7,32,43,70,94,122,136,147,173,177,178,179,180,181,182,183,184,185,187,188,189,190,199,210},{8,33,44,84,108,148,163,174,177,178,179,180,181,182,183,184,185,186,188,189,190,200},{9,35,46,59,72,96,110,124,137,150,164,176,177,178,179,180,181,182,183,184,185,186,187,189,190,202,212},{10,19,26,47,60,73,86,97,111,138,151,165,177,178,179,180,181,182,183,184,185,186,187,188,190},{11,36,48,61,74,87,98,112,125,139,152,166,177,178,179,180,181,182,183,184,185,186,187,188,189,213},{12,20,27,62,75,88,113,126,140,153,177,192,193,194,195,196,197,198,199,200,201,202,203},{1,14,28,50,63,77,90,99,115,128,155,179,191,193,194,195,196,197,198,199,200,201,202,205},{15,22,39,52,65,91,129,142,181,191,192,194,195,196,197,198,199,200,201,202},{3,23,40,53,66,92,101,130,143,157,167,191,192,193,195,196,197,198,199,200,201,202,207},{29,55,68,80,103,118,132,159,169,182,191,192,193,194,196,197,198,199,200,201,202},{24,30,69,81,93,104,133,144,170,183,191,192,193,194,195,197,198,199,200,201,202},{17,25,42,57,82,106,120,135,161,172,185,191,192,193,194,195,196,198,199,200,201,202},{6,31,58,83,107,121,146,162,191,192,193,194,195,196,197,199,200,201,202},{7,32,43,70,94,122,136,147,173,186,191,192,193,194,195,196,197,198,200,201,202,210},{8,33,44,84,108,148,163,174,187,191,192,193,194,195,196,197,198,199,201,202},{18,34,45,71,85,95,109,123,149,175,191,192,193,194,195,196,197,198,199,200,202,211},{9,35,46,59,72,96,110,124,137,150,164,176,188,191,192,193,194,195,196,197,198,199,200,201,212},{12,20,27,62,75,88,113,126,140,153,177,191,204,205,206,207,208,209,210,211,212,213},{0,13,37,49,76,89,114,127,141,154,178,203,205,206,207,208,209,210,211,212,213},{1,14,28,50,63,77,90,99,115,128,155,179,192,203,204,206,207,208,209,210,211,212,213},{2,21,38,51,64,78,100,116,156,180,203,204,205,207,208,209,210,211,212,213},{3,23,40,53,66,92,101,130,143,157,167,194,203,204,205,206,208,209,210,211,212,213},{4,41,54,67,79,102,117,131,158,168,203,204,205,206,207,209,210,211,212,213},{5,16,56,105,119,134,145,160,171,184,203,204,205,206,207,208,210,211,212,213},{7,32,43,70,94,122,136,147,173,186,199,203,204,205,206,207,208,209,211,212,213},{18,34,45,71,85,95,109,123,149,175,201,203,204,205,206,207,208,209,210,212,213},{9,35,46,59,72,96,110,124,137,150,164,176,188,202,203,204,205,206,207,208,209,210,211,213},{11,36,48,61,74,87,98,112,125,139,152,166,190,203,204,205,206,207,208,209,210,211,212}];
weights=[240,492,604,528,335,415,479,266,446,679,203,505,536,549,453,291,204,506,693,645,552,363,539,402,249,443,262,311,505,626,625,504,322,530,385,523,503,365,701,429,703,427,683,397,651,520,644,538,394,444,487,324,621,309,460,242,271,464,560,631,553,261,303,530,315,699,325,368,206,460,563,528,433,661,373,636,644,416,416,547,321,388,270,207,232,350,303,627,237,251,555,472,582,496,223,413,307,659,539,456,692,427,265,563,466,673,496,396,552,533,434,572,310,286,280,682,481,226,418,422,485,681,566,242,420,702,495,640,487,367,235,212,201,662,617,481,359,636,479,470,511,252,238,568,364,651,342,496,684,334,353,210,665,462,431,495,215,338,583,495,475,521,539,383,684,505,635,552,303,301,216,296,448,239,471,516,460,441,685,599,491,453,541,563,683,620,555,498,250,595,345,689,593,396,521,642,262,670,298,677,674,670,418,321,391,614,432,580,485,402,273,421,534,321];
